(declare-fun c_ack!51 () (_ BitVec 64))
(declare-fun a_ack!52 () (_ BitVec 32))
(declare-fun b_ack!50 () (_ BitVec 64))
(declare-fun FPCHECK_FSUB_ACCURACY ((_ BitVec 64) (_ BitVec 64)) Bool)
(assert (not (fp.leq ((_ to_fp 11 53) c_ack!51) ((_ to_fp 11 53) #xbff0000000000000))))
(assert (not (bvslt a_ack!52 #xffffffff)))
(assert (= #xffffffff a_ack!52))
(assert (not (fp.leq ((_ to_fp 11 53) c_ack!51) ((_ to_fp 11 53) #xbff0000000000000))))
(assert (fp.eq ((_ to_fp 11 53) b_ack!50) ((_ to_fp 11 53) #x0000000000000000)))
(assert (not (fp.eq ((_ to_fp 11 53) c_ack!51) ((_ to_fp 11 53) #x3ff0000000000000))))
(assert (fp.lt ((_ to_fp 11 53) c_ack!51) ((_ to_fp 11 53) #x3ff0000000000000)))
(assert (FPCHECK_FSUB_ACCURACY #x3ff0000000000000 c_ack!51))

(check-sat)
(exit)
